SCIP version 5.0.0 [precision: 8 byte] [memory: block] [mode: optimized] [LP solver: NONE] [GitHash: 3bbd232]
Copyright (C) 2002-2017 Konrad-Zuse-Zentrum fuer Informationstechnik Berlin (ZIB)

External codes: 
  Readline EditLine w  GNU library for command line editing (gnu.org/s/readline)
  CppAD 20160000.1     Algorithmic Differentiation of C++ algorithms developed by B. Bell (www.coin-or.org/CppAD)
  ZLIB 1.2.5           General purpose compression library by J. Gailly and M. Adler (zlib.net)
  GMP 6.1.2            GNU Multiple Precision Arithmetic Library developed by T. Granlund (gmplib.org)

user parameter file <scip.set> not found - using default parameters

read problem <../../Split_data/output/biodeg/2/3_sample_biodeg.logreg>
============

File name	:	../../Split_data/output/biodeg/2/3_sample_biodeg.logreg
Problem name 	:	3_sample_biodeg
Number of data	:	844
Number of var	:	41
The given data has linear dependence
1 sets of column vector are linearly dependent:
{ 19}, 

[dim=1] time: 0.027208
[dim=2] time: 0.057029
[dim=3] time: 0.103152
[dim=4] time: 0.133817
[dim=5] time: 0.162424
[dim=6] time: 0.192856
[dim=7] time: 0.225164
[dim=8] time: 0.252909
[dim=9] time: 0.287919
[dim=10] time: 0.318224
[dim=11] time: 0.348531
[dim=12] time: 0.373371
[dim=13] time: 0.398335
[dim=14] time: 0.415934
[dim=15] time: 0.434912
[dim=16] time: 0.453632
[dim=17] time: 0.477307
[dim=18] time: 0.495564
[dim=19] time: 0.521823
[dim=20] time: 0.541281
[dim=21] time: 0.565514
[dim=22] time: 0.584527
[dim=23] time: 0.600357
[dim=24] time: 0.614111
[dim=25] Time of forward = 0.62795sec.
AIC: 517.388
k: 24

[dim=40] time: 0.134403
[dim=39] time: 0.192812
[dim=38] time: 0.260812
[dim=37] time: 0.316479
[dim=36] time: 0.356033
[dim=35] time: 0.397834
[dim=34] time: 0.443924
[dim=33] time: 0.495896
[dim=32] time: 0.543261
[dim=31] time: 0.600818
[dim=30] time: 0.649066
[dim=29] time: 0.684794
[dim=28] time: 0.713825
[dim=27] time: 0.743244
[dim=26] time: 0.771828
[dim=25] time: 0.798738
[dim=24] time: 0.832026
[dim=23] time: 0.864539
[dim=22] Time of backward = 0.891588sec.
AIC: 515.22
k: 23
